\Problem name: Bi-partition

Minimize
OBJROW: x_0_1 + x_0_3 + x_0_4 + x_0_6 + x_0_11 + x_0_13 + x_0_15 + x_0_16 + x_0_18 + x_0_19
 + x_1_2 + x_1_5 + x_1_10 + x_1_13 + x_1_16 + x_1_17 + x_2_7 + x_2_14 + x_2_16 + x_2_18
 + x_3_7 + x_3_9 + x_3_11 + x_3_12 + x_3_15 + x_3_17 + x_3_18 + x_3_19 + x_4_6 + x_4_9
 + x_4_11 + x_4_12 + x_4_13 + x_4_16 + x_4_17 + x_5_7 + x_5_9 + x_5_12 + x_5_13 + x_5_14
 + x_5_16 + x_5_18 + x_6_7 + x_6_11 + x_6_16 + x_6_17 + x_6_18 + x_6_19 + x_7_11 + x_7_14
 + x_7_16 + x_7_18 + x_8_10 + x_8_15 + x_8_16 + x_8_17 + x_8_18 + x_9_13 + x_9_19 + x_10_17
 + x_11_12 + x_11_16 + x_11_17 + x_12_13 + x_12_19 + x_13_14 + x_14_15 + x_14_17 + x_15_17 + x_16_18
 + x_17_19 + x_18_19
Subject To
constr(0):  x_0 + x_1 + x_2 + x_3 + x_4 + x_5 + x_6 + x_7 + x_8 + x_9
 + x_10 + x_11 + x_12 + x_13 + x_14 + x_15 + x_16 + x_17 + x_18 + x_19
 = 10
constr(1):  x_0 - x_1 - x_0_1 <= -0
constr(2):  - x_0 + x_1 - x_0_1 <= -0
constr(3):  x_0 + x_1 - x_0_1 >= -0
constr(4):  x_0 + x_1 + x_0_1 <= 2
constr(5):  x_0 - x_3 - x_0_3 <= -0
constr(6):  - x_0 + x_3 - x_0_3 <= -0
constr(7):  x_0 + x_3 - x_0_3 >= -0
constr(8):  x_0 + x_3 + x_0_3 <= 2
constr(9):  x_0 - x_4 - x_0_4 <= -0
constr(10):  - x_0 + x_4 - x_0_4 <= -0
constr(11):  x_0 + x_4 - x_0_4 >= -0
constr(12):  x_0 + x_4 + x_0_4 <= 2
constr(13):  x_0 - x_6 - x_0_6 <= -0
constr(14):  - x_0 + x_6 - x_0_6 <= -0
constr(15):  x_0 + x_6 - x_0_6 >= -0
constr(16):  x_0 + x_6 + x_0_6 <= 2
constr(17):  x_0 - x_11 - x_0_11 <= -0
constr(18):  - x_0 + x_11 - x_0_11 <= -0
constr(19):  x_0 + x_11 - x_0_11 >= -0
constr(20):  x_0 + x_11 + x_0_11 <= 2
constr(21):  x_0 - x_13 - x_0_13 <= -0
constr(22):  - x_0 + x_13 - x_0_13 <= -0
constr(23):  x_0 + x_13 - x_0_13 >= -0
constr(24):  x_0 + x_13 + x_0_13 <= 2
constr(25):  x_0 - x_15 - x_0_15 <= -0
constr(26):  - x_0 + x_15 - x_0_15 <= -0
constr(27):  x_0 + x_15 - x_0_15 >= -0
constr(28):  x_0 + x_15 + x_0_15 <= 2
constr(29):  x_0 - x_16 - x_0_16 <= -0
constr(30):  - x_0 + x_16 - x_0_16 <= -0
constr(31):  x_0 + x_16 - x_0_16 >= -0
constr(32):  x_0 + x_16 + x_0_16 <= 2
constr(33):  x_0 - x_18 - x_0_18 <= -0
constr(34):  - x_0 + x_18 - x_0_18 <= -0
constr(35):  x_0 + x_18 - x_0_18 >= -0
constr(36):  x_0 + x_18 + x_0_18 <= 2
constr(37):  x_0 - x_19 - x_0_19 <= -0
constr(38):  - x_0 + x_19 - x_0_19 <= -0
constr(39):  x_0 + x_19 - x_0_19 >= -0
constr(40):  x_0 + x_19 + x_0_19 <= 2
constr(41):  x_1 - x_2 - x_1_2 <= -0
constr(42):  - x_1 + x_2 - x_1_2 <= -0
constr(43):  x_1 + x_2 - x_1_2 >= -0
constr(44):  x_1 + x_2 + x_1_2 <= 2
constr(45):  x_1 - x_5 - x_1_5 <= -0
constr(46):  - x_1 + x_5 - x_1_5 <= -0
constr(47):  x_1 + x_5 - x_1_5 >= -0
constr(48):  x_1 + x_5 + x_1_5 <= 2
constr(49):  x_1 - x_10 - x_1_10 <= -0
constr(50):  - x_1 + x_10 - x_1_10 <= -0
constr(51):  x_1 + x_10 - x_1_10 >= -0
constr(52):  x_1 + x_10 + x_1_10 <= 2
constr(53):  x_1 - x_13 - x_1_13 <= -0
constr(54):  - x_1 + x_13 - x_1_13 <= -0
constr(55):  x_1 + x_13 - x_1_13 >= -0
constr(56):  x_1 + x_13 + x_1_13 <= 2
constr(57):  x_1 - x_16 - x_1_16 <= -0
constr(58):  - x_1 + x_16 - x_1_16 <= -0
constr(59):  x_1 + x_16 - x_1_16 >= -0
constr(60):  x_1 + x_16 + x_1_16 <= 2
constr(61):  x_1 - x_17 - x_1_17 <= -0
constr(62):  - x_1 + x_17 - x_1_17 <= -0
constr(63):  x_1 + x_17 - x_1_17 >= -0
constr(64):  x_1 + x_17 + x_1_17 <= 2
constr(65):  x_2 - x_7 - x_2_7 <= -0
constr(66):  - x_2 + x_7 - x_2_7 <= -0
constr(67):  x_2 + x_7 - x_2_7 >= -0
constr(68):  x_2 + x_7 + x_2_7 <= 2
constr(69):  x_2 - x_14 - x_2_14 <= -0
constr(70):  - x_2 + x_14 - x_2_14 <= -0
constr(71):  x_2 + x_14 - x_2_14 >= -0
constr(72):  x_2 + x_14 + x_2_14 <= 2
constr(73):  x_2 - x_16 - x_2_16 <= -0
constr(74):  - x_2 + x_16 - x_2_16 <= -0
constr(75):  x_2 + x_16 - x_2_16 >= -0
constr(76):  x_2 + x_16 + x_2_16 <= 2
constr(77):  x_2 - x_18 - x_2_18 <= -0
constr(78):  - x_2 + x_18 - x_2_18 <= -0
constr(79):  x_2 + x_18 - x_2_18 >= -0
constr(80):  x_2 + x_18 + x_2_18 <= 2
constr(81):  x_3 - x_7 - x_3_7 <= -0
constr(82):  - x_3 + x_7 - x_3_7 <= -0
constr(83):  x_3 + x_7 - x_3_7 >= -0
constr(84):  x_3 + x_7 + x_3_7 <= 2
constr(85):  x_3 - x_9 - x_3_9 <= -0
constr(86):  - x_3 + x_9 - x_3_9 <= -0
constr(87):  x_3 + x_9 - x_3_9 >= -0
constr(88):  x_3 + x_9 + x_3_9 <= 2
constr(89):  x_3 - x_11 - x_3_11 <= -0
constr(90):  - x_3 + x_11 - x_3_11 <= -0
constr(91):  x_3 + x_11 - x_3_11 >= -0
constr(92):  x_3 + x_11 + x_3_11 <= 2
constr(93):  x_3 - x_12 - x_3_12 <= -0
constr(94):  - x_3 + x_12 - x_3_12 <= -0
constr(95):  x_3 + x_12 - x_3_12 >= -0
constr(96):  x_3 + x_12 + x_3_12 <= 2
constr(97):  x_3 - x_15 - x_3_15 <= -0
constr(98):  - x_3 + x_15 - x_3_15 <= -0
constr(99):  x_3 + x_15 - x_3_15 >= -0
constr(100):  x_3 + x_15 + x_3_15 <= 2
constr(101):  x_3 - x_17 - x_3_17 <= -0
constr(102):  - x_3 + x_17 - x_3_17 <= -0
constr(103):  x_3 + x_17 - x_3_17 >= -0
constr(104):  x_3 + x_17 + x_3_17 <= 2
constr(105):  x_3 - x_18 - x_3_18 <= -0
constr(106):  - x_3 + x_18 - x_3_18 <= -0
constr(107):  x_3 + x_18 - x_3_18 >= -0
constr(108):  x_3 + x_18 + x_3_18 <= 2
constr(109):  x_3 - x_19 - x_3_19 <= -0
constr(110):  - x_3 + x_19 - x_3_19 <= -0
constr(111):  x_3 + x_19 - x_3_19 >= -0
constr(112):  x_3 + x_19 + x_3_19 <= 2
constr(113):  x_4 - x_6 - x_4_6 <= -0
constr(114):  - x_4 + x_6 - x_4_6 <= -0
constr(115):  x_4 + x_6 - x_4_6 >= -0
constr(116):  x_4 + x_6 + x_4_6 <= 2
constr(117):  x_4 - x_9 - x_4_9 <= -0
constr(118):  - x_4 + x_9 - x_4_9 <= -0
constr(119):  x_4 + x_9 - x_4_9 >= -0
constr(120):  x_4 + x_9 + x_4_9 <= 2
constr(121):  x_4 - x_11 - x_4_11 <= -0
constr(122):  - x_4 + x_11 - x_4_11 <= -0
constr(123):  x_4 + x_11 - x_4_11 >= -0
constr(124):  x_4 + x_11 + x_4_11 <= 2
constr(125):  x_4 - x_12 - x_4_12 <= -0
constr(126):  - x_4 + x_12 - x_4_12 <= -0
constr(127):  x_4 + x_12 - x_4_12 >= -0
constr(128):  x_4 + x_12 + x_4_12 <= 2
constr(129):  x_4 - x_13 - x_4_13 <= -0
constr(130):  - x_4 + x_13 - x_4_13 <= -0
constr(131):  x_4 + x_13 - x_4_13 >= -0
constr(132):  x_4 + x_13 + x_4_13 <= 2
constr(133):  x_4 - x_16 - x_4_16 <= -0
constr(134):  - x_4 + x_16 - x_4_16 <= -0
constr(135):  x_4 + x_16 - x_4_16 >= -0
constr(136):  x_4 + x_16 + x_4_16 <= 2
constr(137):  x_4 - x_17 - x_4_17 <= -0
constr(138):  - x_4 + x_17 - x_4_17 <= -0
constr(139):  x_4 + x_17 - x_4_17 >= -0
constr(140):  x_4 + x_17 + x_4_17 <= 2
constr(141):  x_5 - x_7 - x_5_7 <= -0
constr(142):  - x_5 + x_7 - x_5_7 <= -0
constr(143):  x_5 + x_7 - x_5_7 >= -0
constr(144):  x_5 + x_7 + x_5_7 <= 2
constr(145):  x_5 - x_9 - x_5_9 <= -0
constr(146):  - x_5 + x_9 - x_5_9 <= -0
constr(147):  x_5 + x_9 - x_5_9 >= -0
constr(148):  x_5 + x_9 + x_5_9 <= 2
constr(149):  x_5 - x_12 - x_5_12 <= -0
constr(150):  - x_5 + x_12 - x_5_12 <= -0
constr(151):  x_5 + x_12 - x_5_12 >= -0
constr(152):  x_5 + x_12 + x_5_12 <= 2
constr(153):  x_5 - x_13 - x_5_13 <= -0
constr(154):  - x_5 + x_13 - x_5_13 <= -0
constr(155):  x_5 + x_13 - x_5_13 >= -0
constr(156):  x_5 + x_13 + x_5_13 <= 2
constr(157):  x_5 - x_14 - x_5_14 <= -0
constr(158):  - x_5 + x_14 - x_5_14 <= -0
constr(159):  x_5 + x_14 - x_5_14 >= -0
constr(160):  x_5 + x_14 + x_5_14 <= 2
constr(161):  x_5 - x_16 - x_5_16 <= -0
constr(162):  - x_5 + x_16 - x_5_16 <= -0
constr(163):  x_5 + x_16 - x_5_16 >= -0
constr(164):  x_5 + x_16 + x_5_16 <= 2
constr(165):  x_5 - x_18 - x_5_18 <= -0
constr(166):  - x_5 + x_18 - x_5_18 <= -0
constr(167):  x_5 + x_18 - x_5_18 >= -0
constr(168):  x_5 + x_18 + x_5_18 <= 2
constr(169):  x_6 - x_7 - x_6_7 <= -0
constr(170):  - x_6 + x_7 - x_6_7 <= -0
constr(171):  x_6 + x_7 - x_6_7 >= -0
constr(172):  x_6 + x_7 + x_6_7 <= 2
constr(173):  x_6 - x_11 - x_6_11 <= -0
constr(174):  - x_6 + x_11 - x_6_11 <= -0
constr(175):  x_6 + x_11 - x_6_11 >= -0
constr(176):  x_6 + x_11 + x_6_11 <= 2
constr(177):  x_6 - x_16 - x_6_16 <= -0
constr(178):  - x_6 + x_16 - x_6_16 <= -0
constr(179):  x_6 + x_16 - x_6_16 >= -0
constr(180):  x_6 + x_16 + x_6_16 <= 2
constr(181):  x_6 - x_17 - x_6_17 <= -0
constr(182):  - x_6 + x_17 - x_6_17 <= -0
constr(183):  x_6 + x_17 - x_6_17 >= -0
constr(184):  x_6 + x_17 + x_6_17 <= 2
constr(185):  x_6 - x_18 - x_6_18 <= -0
constr(186):  - x_6 + x_18 - x_6_18 <= -0
constr(187):  x_6 + x_18 - x_6_18 >= -0
constr(188):  x_6 + x_18 + x_6_18 <= 2
constr(189):  x_6 - x_19 - x_6_19 <= -0
constr(190):  - x_6 + x_19 - x_6_19 <= -0
constr(191):  x_6 + x_19 - x_6_19 >= -0
constr(192):  x_6 + x_19 + x_6_19 <= 2
constr(193):  x_7 - x_11 - x_7_11 <= -0
constr(194):  - x_7 + x_11 - x_7_11 <= -0
constr(195):  x_7 + x_11 - x_7_11 >= -0
constr(196):  x_7 + x_11 + x_7_11 <= 2
constr(197):  x_7 - x_14 - x_7_14 <= -0
constr(198):  - x_7 + x_14 - x_7_14 <= -0
constr(199):  x_7 + x_14 - x_7_14 >= -0
constr(200):  x_7 + x_14 + x_7_14 <= 2
constr(201):  x_7 - x_16 - x_7_16 <= -0
constr(202):  - x_7 + x_16 - x_7_16 <= -0
constr(203):  x_7 + x_16 - x_7_16 >= -0
constr(204):  x_7 + x_16 + x_7_16 <= 2
constr(205):  x_7 - x_18 - x_7_18 <= -0
constr(206):  - x_7 + x_18 - x_7_18 <= -0
constr(207):  x_7 + x_18 - x_7_18 >= -0
constr(208):  x_7 + x_18 + x_7_18 <= 2
constr(209):  x_8 - x_10 - x_8_10 <= -0
constr(210):  - x_8 + x_10 - x_8_10 <= -0
constr(211):  x_8 + x_10 - x_8_10 >= -0
constr(212):  x_8 + x_10 + x_8_10 <= 2
constr(213):  x_8 - x_15 - x_8_15 <= -0
constr(214):  - x_8 + x_15 - x_8_15 <= -0
constr(215):  x_8 + x_15 - x_8_15 >= -0
constr(216):  x_8 + x_15 + x_8_15 <= 2
constr(217):  x_8 - x_16 - x_8_16 <= -0
constr(218):  - x_8 + x_16 - x_8_16 <= -0
constr(219):  x_8 + x_16 - x_8_16 >= -0
constr(220):  x_8 + x_16 + x_8_16 <= 2
constr(221):  x_8 - x_17 - x_8_17 <= -0
constr(222):  - x_8 + x_17 - x_8_17 <= -0
constr(223):  x_8 + x_17 - x_8_17 >= -0
constr(224):  x_8 + x_17 + x_8_17 <= 2
constr(225):  x_8 - x_18 - x_8_18 <= -0
constr(226):  - x_8 + x_18 - x_8_18 <= -0
constr(227):  x_8 + x_18 - x_8_18 >= -0
constr(228):  x_8 + x_18 + x_8_18 <= 2
constr(229):  x_9 - x_13 - x_9_13 <= -0
constr(230):  - x_9 + x_13 - x_9_13 <= -0
constr(231):  x_9 + x_13 - x_9_13 >= -0
constr(232):  x_9 + x_13 + x_9_13 <= 2
constr(233):  x_9 - x_19 - x_9_19 <= -0
constr(234):  - x_9 + x_19 - x_9_19 <= -0
constr(235):  x_9 + x_19 - x_9_19 >= -0
constr(236):  x_9 + x_19 + x_9_19 <= 2
constr(237):  x_10 - x_17 - x_10_17 <= -0
constr(238):  - x_10 + x_17 - x_10_17 <= -0
constr(239):  x_10 + x_17 - x_10_17 >= -0
constr(240):  x_10 + x_17 + x_10_17 <= 2
constr(241):  x_11 - x_12 - x_11_12 <= -0
constr(242):  - x_11 + x_12 - x_11_12 <= -0
constr(243):  x_11 + x_12 - x_11_12 >= -0
constr(244):  x_11 + x_12 + x_11_12 <= 2
constr(245):  x_11 - x_16 - x_11_16 <= -0
constr(246):  - x_11 + x_16 - x_11_16 <= -0
constr(247):  x_11 + x_16 - x_11_16 >= -0
constr(248):  x_11 + x_16 + x_11_16 <= 2
constr(249):  x_11 - x_17 - x_11_17 <= -0
constr(250):  - x_11 + x_17 - x_11_17 <= -0
constr(251):  x_11 + x_17 - x_11_17 >= -0
constr(252):  x_11 + x_17 + x_11_17 <= 2
constr(253):  x_12 - x_13 - x_12_13 <= -0
constr(254):  - x_12 + x_13 - x_12_13 <= -0
constr(255):  x_12 + x_13 - x_12_13 >= -0
constr(256):  x_12 + x_13 + x_12_13 <= 2
constr(257):  x_12 - x_19 - x_12_19 <= -0
constr(258):  - x_12 + x_19 - x_12_19 <= -0
constr(259):  x_12 + x_19 - x_12_19 >= -0
constr(260):  x_12 + x_19 + x_12_19 <= 2
constr(261):  x_13 - x_14 - x_13_14 <= -0
constr(262):  - x_13 + x_14 - x_13_14 <= -0
constr(263):  x_13 + x_14 - x_13_14 >= -0
constr(264):  x_13 + x_14 + x_13_14 <= 2
constr(265):  x_14 - x_15 - x_14_15 <= -0
constr(266):  - x_14 + x_15 - x_14_15 <= -0
constr(267):  x_14 + x_15 - x_14_15 >= -0
constr(268):  x_14 + x_15 + x_14_15 <= 2
constr(269):  x_14 - x_17 - x_14_17 <= -0
constr(270):  - x_14 + x_17 - x_14_17 <= -0
constr(271):  x_14 + x_17 - x_14_17 >= -0
constr(272):  x_14 + x_17 + x_14_17 <= 2
constr(273):  x_15 - x_17 - x_15_17 <= -0
constr(274):  - x_15 + x_17 - x_15_17 <= -0
constr(275):  x_15 + x_17 - x_15_17 >= -0
constr(276):  x_15 + x_17 + x_15_17 <= 2
constr(277):  x_16 - x_18 - x_16_18 <= -0
constr(278):  - x_16 + x_18 - x_16_18 <= -0
constr(279):  x_16 + x_18 - x_16_18 >= -0
constr(280):  x_16 + x_18 + x_16_18 <= 2
constr(281):  x_17 - x_19 - x_17_19 <= -0
constr(282):  - x_17 + x_19 - x_17_19 <= -0
constr(283):  x_17 + x_19 - x_17_19 >= -0
constr(284):  x_17 + x_19 + x_17_19 <= 2
constr(285):  x_18 - x_19 - x_18_19 <= -0
constr(286):  - x_18 + x_19 - x_18_19 <= -0
constr(287):  x_18 + x_19 - x_18_19 >= -0
constr(288):  x_18 + x_19 + x_18_19 <= 2
Bounds
 0 <= x_0 <= 1
 0 <= x_1 <= 1
 0 <= x_2 <= 1
 0 <= x_3 <= 1
 0 <= x_4 <= 1
 0 <= x_5 <= 1
 0 <= x_6 <= 1
 0 <= x_7 <= 1
 0 <= x_8 <= 1
 0 <= x_9 <= 1
 0 <= x_10 <= 1
 0 <= x_11 <= 1
 0 <= x_12 <= 1
 0 <= x_13 <= 1
 0 <= x_14 <= 1
 0 <= x_15 <= 1
 0 <= x_16 <= 1
 0 <= x_17 <= 1
 0 <= x_18 <= 1
 0 <= x_19 <= 1
 0 <= x_0_1 <= 1
 0 <= x_0_3 <= 1
 0 <= x_0_4 <= 1
 0 <= x_0_6 <= 1
 0 <= x_0_11 <= 1
 0 <= x_0_13 <= 1
 0 <= x_0_15 <= 1
 0 <= x_0_16 <= 1
 0 <= x_0_18 <= 1
 0 <= x_0_19 <= 1
 0 <= x_1_2 <= 1
 0 <= x_1_5 <= 1
 0 <= x_1_10 <= 1
 0 <= x_1_13 <= 1
 0 <= x_1_16 <= 1
 0 <= x_1_17 <= 1
 0 <= x_2_7 <= 1
 0 <= x_2_14 <= 1
 0 <= x_2_16 <= 1
 0 <= x_2_18 <= 1
 0 <= x_3_7 <= 1
 0 <= x_3_9 <= 1
 0 <= x_3_11 <= 1
 0 <= x_3_12 <= 1
 0 <= x_3_15 <= 1
 0 <= x_3_17 <= 1
 0 <= x_3_18 <= 1
 0 <= x_3_19 <= 1
 0 <= x_4_6 <= 1
 0 <= x_4_9 <= 1
 0 <= x_4_11 <= 1
 0 <= x_4_12 <= 1
 0 <= x_4_13 <= 1
 0 <= x_4_16 <= 1
 0 <= x_4_17 <= 1
 0 <= x_5_7 <= 1
 0 <= x_5_9 <= 1
 0 <= x_5_12 <= 1
 0 <= x_5_13 <= 1
 0 <= x_5_14 <= 1
 0 <= x_5_16 <= 1
 0 <= x_5_18 <= 1
 0 <= x_6_7 <= 1
 0 <= x_6_11 <= 1
 0 <= x_6_16 <= 1
 0 <= x_6_17 <= 1
 0 <= x_6_18 <= 1
 0 <= x_6_19 <= 1
 0 <= x_7_11 <= 1
 0 <= x_7_14 <= 1
 0 <= x_7_16 <= 1
 0 <= x_7_18 <= 1
 0 <= x_8_10 <= 1
 0 <= x_8_15 <= 1
 0 <= x_8_16 <= 1
 0 <= x_8_17 <= 1
 0 <= x_8_18 <= 1
 0 <= x_9_13 <= 1
 0 <= x_9_19 <= 1
 0 <= x_10_17 <= 1
 0 <= x_11_12 <= 1
 0 <= x_11_16 <= 1
 0 <= x_11_17 <= 1
 0 <= x_12_13 <= 1
 0 <= x_12_19 <= 1
 0 <= x_13_14 <= 1
 0 <= x_14_15 <= 1
 0 <= x_14_17 <= 1
 0 <= x_15_17 <= 1
 0 <= x_16_18 <= 1
 0 <= x_17_19 <= 1
 0 <= x_18_19 <= 1
Integers
x_0 x_1 x_2 x_3 x_4 x_5 x_6 x_7 x_8 x_9 
x_10 x_11 x_12 x_13 x_14 x_15 x_16 x_17 x_18 x_19 
x_0_1 x_0_3 x_0_4 x_0_6 x_0_11 x_0_13 x_0_15 x_0_16 x_0_18 x_0_19 
x_1_2 x_1_5 x_1_10 x_1_13 x_1_16 x_1_17 x_2_7 x_2_14 x_2_16 x_2_18 
x_3_7 x_3_9 x_3_11 x_3_12 x_3_15 x_3_17 x_3_18 x_3_19 x_4_6 x_4_9 
x_4_11 x_4_12 x_4_13 x_4_16 x_4_17 x_5_7 x_5_9 x_5_12 x_5_13 x_5_14 
x_5_16 x_5_18 x_6_7 x_6_11 x_6_16 x_6_17 x_6_18 x_6_19 x_7_11 x_7_14 
x_7_16 x_7_18 x_8_10 x_8_15 x_8_16 x_8_17 x_8_18 x_9_13 x_9_19 x_10_17 
x_11_12 x_11_16 x_11_17 x_12_13 x_12_19 x_13_14 x_14_15 x_14_17 x_15_17 x_16_18 
x_17_19 x_18_19 
End
